************************************************************************
file with basedata            : mm27_.bas
initial value random generator: 2071451586
************************************************************************
projects                      :  1
jobs (incl. supersource/sink ):  12
horizon                       :  88
RESOURCES
  - renewable                 :  2   R
  - nonrenewable              :  2   N
  - doubly constrained        :  0   D
************************************************************************
PROJECT INFORMATION:
pronr.  #jobs rel.date duedate tardcost  MPM-Time
    1     10      0       15        0       15
************************************************************************
PRECEDENCE RELATIONS:
jobnr.    #modes  #successors   successors
   0        1          3           1   2   3
   1        3          1           4
   2        3          3           5   6   7
   3        3          2           8  10
   4        3          3           6   9  10
   5        3          1           9
   6        3          1           8
   7        3          1           9
   8        3          1          11
   9        3          1          11
  10        3          1          11
  11        1          0        
************************************************************************
REQUESTS/DURATIONS:
jobnr. mode duration  R 1  R 2  R 3  R 4  E(W 1)  E(W 2)  E(W 3)
------------------------------------------------------------------------
  0      1     0       0    0    0    0     0       0       0
  1      1     3       0    7    6    0    21      18       0
  2      1     2       0    6    0    2    12       0       4
  3      1     1       0    7    0    1     7       0       2
  4      1     3       0    4    5    0    12      15       0
  5      1     1       4    0    0    8     4       0       8
  6      1     6       0    8    0    7    48       0      42
  7      1     2       0    9    0    2    18       0       4
  8      1     3       0    5    0    7    15       0      21
  9      1     4       4    0    7    0    16      28       0
 10      1     2      10    0    8    0    20      16       0
 11      1     0       0    0    0    0     0       0       0
************************************************************************
RESOURCEAVAILABILITIES:
  R 1  R 2  R 3
   46   36   33
************************************************************************
RESOURCE LIMITS:
jobnr.  l(R 1)  u(R 1)  l(R 2)  u(R 2)  l(R 3)  u(R 3)
------------------------------------------------------------------------
  0        0       0       0       0       0       0
  1        4       7       3       6       0       0
  2        3       6       0       0       1       2
  3        4       7       0       0       1       2
  4        2       4       3       5       0       0
  5        2       4       0       0       4       8
  6        4       8       0       0       4       7
  7        5       9       0       0       1       2
  8        3       5       0       0       4       7
  9        2       4       4       7       0       0
 10        5      10       4       8       0       0
 11        0       0       0       0       0       0
************************************************************************
SCENARIOS:
------------------------------------------------------------------------
RESOURCE k = 1
s = 1: (0, 15, 19, 8, 13, 3, 28, 20, 13, 17, 23, 0)
s = 2: (0, 26, 8, 8, 13, 5, 66, 14, 11, 11, 14, 0)
s = 3: (0, 17, 10, 10, 17, 5, 35, 16, 11, 21, 14, 0)
s = 4: (0, 19, 12, 6, 15, 3, 39, 17, 18, 19, 32, 0)
s = 5: (0, 20, 12, 8, 10, 4, 29, 14, 10, 15, 18, 0)
s = 6: (0, 16, 21, 8, 9, 3, 43, 16, 20, 17, 21, 0)
s = 7: (0, 22, 20, 7, 10, 6, 38, 26, 15, 20, 20, 0)
s = 8: (0, 16, 13, 7, 18, 6, 55, 23, 22, 14, 34, 0)
s = 9: (0, 16, 10, 8, 10, 5, 60, 13, 12, 15, 23, 0)
s = 10: (0, 21, 9, 7, 11, 5, 50, 18, 11, 17, 23, 0)
s = 11: (0, 28, 11, 8, 9, 4, 32, 16, 10, 15, 15, 0)
s = 12: (0, 14, 11, 8, 11, 4, 47, 19, 13, 14, 16, 0)
s = 13: (0, 24, 15, 8, 15, 3, 34, 21, 21, 11, 15, 0)
s = 14: (0, 29, 11, 9, 10, 3, 28, 18, 15, 17, 15, 0)
s = 15: (0, 19, 21, 11, 21, 6, 53, 11, 11, 15, 16, 0)
s = 16: (0, 37, 14, 12, 14, 5, 65, 16, 18, 17, 16, 0)
s = 17: (0, 16, 10, 10, 7, 4, 61, 13, 22, 11, 28, 0)
s = 18: (0, 17, 12, 6, 16, 3, 62, 15, 18, 16, 19, 0)
s = 19: (0, 21, 11, 8, 10, 4, 40, 17, 14, 15, 14, 0)
s = 20: (0, 17, 8, 5, 20, 5, 64, 20, 13, 13, 15, 0)
s = 21: (0, 15, 11, 7, 8, 5, 26, 18, 14, 14, 32, 0)
s = 22: (0, 25, 11, 8, 13, 4, 38, 19, 17, 15, 20, 0)
s = 23: (0, 17, 9, 5, 12, 3, 36, 17, 16, 17, 21, 0)
s = 24: (0, 21, 7, 6, 10, 5, 49, 12, 16, 24, 27, 0)
s = 25: (0, 17, 12, 4, 12, 4, 67, 28, 12, 15, 13, 0)
s = 26: (0, 14, 16, 9, 12, 6, 65, 19, 19, 23, 29, 0)
s = 27: (0, 19, 11, 5, 12, 4, 58, 12, 16, 13, 30, 0)
s = 28: (0, 29, 13, 7, 14, 4, 31, 17, 12, 17, 26, 0)
s = 29: (0, 15, 9, 6, 10, 4, 33, 25, 24, 18, 13, 0)
s = 30: (0, 19, 13, 7, 11, 4, 46, 11, 20, 12, 24, 0)
s = 31: (0, 16, 14, 5, 15, 4, 54, 15, 19, 18, 25, 0)
s = 32: (0, 20, 13, 8, 13, 4, 41, 12, 14, 13, 19, 0)
s = 33: (0, 17, 12, 6, 15, 4, 51, 16, 20, 22, 15, 0)
s = 34: (0, 22, 13, 9, 16, 4, 37, 19, 17, 13, 23, 0)
s = 35: (0, 15, 13, 7, 16, 4, 44, 22, 9, 13, 25, 0)
s = 36: (0, 19, 7, 7, 12, 5, 38, 15, 13, 15, 16, 0)
s = 37: (0, 13, 7, 7, 15, 3, 46, 14, 13, 12, 16, 0)
s = 38: (0, 20, 13, 5, 16, 3, 62, 12, 9, 13, 17, 0)
s = 39: (0, 22, 12, 5, 7, 4, 31, 18, 14, 15, 28, 0)
s = 40: (0, 18, 11, 10, 11, 5, 56, 13, 15, 15, 22, 0)
s = 41: (0, 21, 10, 8, 14, 5, 52, 19, 11, 28, 18, 0)
s = 42: (0, 24, 12, 7, 14, 4, 34, 14, 11, 18, 24, 0)
s = 43: (0, 17, 8, 9, 12, 5, 57, 14, 21, 11, 23, 0)
s = 44: (0, 30, 13, 5, 18, 5, 38, 26, 21, 16, 19, 0)
s = 45: (0, 25, 8, 12, 7, 6, 84, 26, 19, 14, 16, 0)
s = 46: (0, 25, 12, 7, 12, 5, 34, 16, 20, 20, 25, 0)
s = 47: (0, 22, 19, 9, 13, 4, 44, 14, 11, 13, 27, 0)
s = 48: (0, 15, 15, 6, 11, 4, 57, 13, 9, 13, 16, 0)
s = 49: (0, 24, 11, 12, 11, 4, 46, 30, 15, 16, 17, 0)
s = 50: (0, 13, 9, 8, 14, 4, 42, 14, 11, 20, 16, 0)
s = 51: (0, 28, 11, 9, 15, 5, 52, 25, 17, 12, 18, 0)
s = 52: (0, 19, 11, 8, 21, 3, 33, 18, 16, 14, 27, 0)
s = 53: (0, 27, 8, 9, 10, 5, 46, 15, 12, 15, 25, 0)
s = 54: (0, 28, 10, 9, 15, 3, 39, 11, 10, 15, 14, 0)
s = 55: (0, 15, 17, 7, 16, 3, 36, 24, 11, 11, 23, 0)
s = 56: (0, 23, 8, 5, 15, 6, 46, 16, 16, 13, 19, 0)
s = 57: (0, 22, 15, 8, 11, 4, 47, 23, 17, 10, 17, 0)
s = 58: (0, 14, 9, 5, 15, 3, 37, 28, 11, 16, 20, 0)
s = 59: (0, 19, 18, 9, 20, 6, 44, 28, 10, 22, 19, 0)
s = 60: (0, 16, 9, 6, 13, 6, 60, 19, 12, 19, 19, 0)
s = 61: (0, 19, 11, 5, 11, 5, 43, 25, 12, 14, 23, 0)
s = 62: (0, 14, 12, 8, 11, 6, 56, 10, 16, 22, 17, 0)
s = 63: (0, 25, 20, 7, 11, 4, 33, 10, 17, 20, 19, 0)
s = 64: (0, 18, 14, 6, 12, 5, 33, 24, 22, 26, 28, 0)
s = 65: (0, 22, 12, 10, 17, 3, 67, 25, 17, 17, 39, 0)
s = 66: (0, 24, 11, 8, 15, 4, 40, 20, 21, 14, 35, 0)
s = 67: (0, 20, 14, 5, 13, 4, 68, 26, 21, 20, 23, 0)
s = 68: (0, 26, 12, 11, 11, 5, 59, 13, 15, 17, 17, 0)
s = 69: (0, 30, 11, 9, 10, 5, 45, 16, 11, 19, 14, 0)
s = 70: (0, 27, 20, 8, 15, 4, 47, 19, 16, 15, 14, 0)
s = 71: (0, 28, 8, 9, 15, 4, 49, 14, 9, 19, 27, 0)
s = 72: (0, 22, 16, 6, 8, 4, 31, 18, 10, 14, 25, 0)
s = 73: (0, 16, 11, 7, 10, 7, 48, 13, 14, 13, 30, 0)
s = 74: (0, 18, 10, 10, 12, 5, 45, 28, 21, 13, 18, 0)
s = 75: (0, 17, 13, 6, 14, 5, 45, 29, 13, 15, 15, 0)
s = 76: (0, 17, 10, 8, 12, 3, 53, 16, 13, 13, 18, 0)
s = 77: (0, 17, 11, 7, 9, 4, 32, 18, 11, 22, 15, 0)
s = 78: (0, 13, 16, 10, 10, 4, 46, 12, 19, 15, 14, 0)
s = 79: (0, 16, 10, 9, 8, 4, 38, 20, 18, 13, 15, 0)
s = 80: (0, 15, 21, 10, 9, 4, 32, 18, 17, 17, 18, 0)
s = 81: (0, 19, 9, 6, 12, 4, 60, 16, 15, 14, 22, 0)
s = 82: (0, 15, 13, 6, 12, 4, 36, 29, 18, 16, 17, 0)
s = 83: (0, 30, 7, 9, 9, 5, 52, 20, 12, 16, 12, 0)
s = 84: (0, 28, 15, 6, 13, 4, 71, 11, 11, 21, 16, 0)
s = 85: (0, 27, 16, 6, 13, 4, 56, 16, 16, 23, 14, 0)
s = 86: (0, 15, 8, 7, 16, 4, 80, 19, 14, 24, 11, 0)
s = 87: (0, 24, 8, 11, 8, 5, 59, 12, 15, 11, 15, 0)
s = 88: (0, 26, 16, 7, 15, 5, 39, 15, 10, 13, 20, 0)
s = 89: (0, 35, 10, 7, 11, 3, 68, 15, 12, 14, 16, 0)
s = 90: (0, 25, 14, 5, 12, 5, 25, 17, 10, 9, 15, 0)
s = 91: (0, 22, 11, 7, 19, 5, 54, 22, 14, 12, 13, 0)
s = 92: (0, 17, 19, 7, 16, 3, 51, 19, 25, 12, 18, 0)
s = 93: (0, 19, 8, 8, 10, 3, 50, 23, 12, 12, 15, 0)
s = 94: (0, 19, 11, 6, 13, 5, 64, 19, 16, 15, 22, 0)
s = 95: (0, 28, 8, 9, 12, 5, 73, 27, 24, 15, 13, 0)
s = 96: (0, 31, 8, 9, 12, 4, 52, 14, 12, 17, 28, 0)
s = 97: (0, 32, 15, 7, 11, 7, 47, 30, 12, 16, 31, 0)
s = 98: (0, 19, 9, 8, 11, 4, 41, 18, 8, 16, 19, 0)
s = 99: (0, 23, 17, 7, 12, 5, 34, 20, 15, 24, 20, 0)
s = 100: (0, 18, 11, 10, 14, 3, 38, 32, 10, 13, 18, 0)
s = 101: (0, 17, 13, 6, 14, 4, 34, 14, 18, 14, 19, 0)
s = 102: (0, 27, 9, 9, 15, 3, 44, 16, 16, 19, 13, 0)
s = 103: (0, 22, 10, 8, 10, 3, 29, 14, 14, 24, 13, 0)
s = 104: (0, 19, 10, 10, 14, 6, 71, 15, 15, 19, 24, 0)
s = 105: (0, 35, 12, 7, 8, 7, 38, 13, 13, 12, 13, 0)
s = 106: (0, 16, 14, 8, 7, 4, 73, 15, 14, 13, 22, 0)
s = 107: (0, 22, 14, 11, 16, 3, 45, 17, 15, 22, 23, 0)
s = 108: (0, 24, 14, 6, 21, 4, 78, 21, 20, 19, 16, 0)
s = 109: (0, 27, 14, 6, 18, 5, 48, 14, 19, 14, 17, 0)
s = 110: (0, 24, 13, 7, 13, 3, 36, 15, 14, 23, 16, 0)
s = 111: (0, 23, 11, 8, 9, 4, 38, 20, 20, 15, 20, 0)
s = 112: (0, 16, 7, 6, 13, 4, 46, 26, 14, 20, 28, 0)
s = 113: (0, 14, 12, 6, 13, 4, 53, 14, 18, 16, 16, 0)
s = 114: (0, 18, 11, 10, 12, 3, 37, 16, 15, 16, 23, 0)
s = 115: (0, 20, 9, 11, 11, 4, 62, 27, 16, 28, 30, 0)
s = 116: (0, 20, 12, 6, 8, 3, 34, 18, 14, 30, 26, 0)
s = 117: (0, 23, 11, 8, 12, 5, 41, 20, 11, 16, 29, 0)
s = 118: (0, 16, 18, 7, 16, 5, 54, 12, 16, 11, 23, 0)
s = 119: (0, 15, 10, 9, 10, 5, 43, 17, 15, 15, 14, 0)
s = 120: (0, 21, 13, 7, 16, 4, 46, 24, 12, 10, 26, 0)
s = 121: (0, 35, 16, 5, 17, 4, 36, 14, 13, 15, 17, 0)
s = 122: (0, 15, 10, 5, 11, 6, 61, 14, 18, 12, 27, 0)
s = 123: (0, 18, 13, 10, 13, 4, 55, 23, 15, 13, 13, 0)
s = 124: (0, 14, 9, 9, 10, 3, 45, 13, 24, 17, 20, 0)
s = 125: (0, 20, 19, 9, 15, 4, 61, 18, 23, 12, 15, 0)
s = 126: (0, 27, 17, 6, 11, 4, 70, 19, 16, 22, 25, 0)
s = 127: (0, 23, 21, 5, 14, 3, 34, 13, 23, 21, 22, 0)
s = 128: (0, 20, 20, 6, 14, 7, 51, 18, 13, 13, 20, 0)
s = 129: (0, 14, 9, 7, 10, 5, 50, 27, 12, 24, 14, 0)
s = 130: (0, 19, 9, 9, 16, 4, 55, 25, 14, 17, 24, 0)
s = 131: (0, 29, 9, 8, 10, 4, 26, 19, 12, 15, 20, 0)
s = 132: (0, 41, 14, 6, 21, 4, 76, 12, 10, 14, 15, 0)
s = 133: (0, 20, 12, 8, 18, 6, 50, 14, 21, 13, 22, 0)
s = 134: (0, 18, 9, 11, 10, 3, 67, 13, 13, 13, 15, 0)
s = 135: (0, 17, 12, 5, 13, 3, 68, 16, 20, 19, 15, 0)
s = 136: (0, 19, 10, 7, 14, 6, 72, 18, 19, 26, 17, 0)
s = 137: (0, 25, 7, 5, 14, 6, 52, 20, 12, 18, 16, 0)
s = 138: (0, 13, 11, 9, 15, 6, 40, 10, 9, 15, 22, 0)
s = 139: (0, 20, 11, 7, 13, 3, 53, 25, 14, 11, 14, 0)
s = 140: (0, 18, 15, 5, 16, 3, 68, 25, 16, 19, 22, 0)
s = 141: (0, 16, 11, 9, 10, 4, 42, 27, 14, 18, 20, 0)
s = 142: (0, 22, 7, 10, 14, 4, 38, 19, 13, 16, 16, 0)
s = 143: (0, 35, 20, 8, 7, 4, 30, 21, 16, 14, 22, 0)
s = 144: (0, 17, 13, 8, 13, 5, 55, 18, 17, 15, 17, 0)
s = 145: (0, 16, 16, 10, 17, 4, 32, 17, 12, 17, 14, 0)
s = 146: (0, 15, 11, 4, 8, 4, 53, 19, 12, 18, 26, 0)
s = 147: (0, 21, 10, 6, 14, 6, 45, 20, 14, 13, 14, 0)
s = 148: (0, 19, 16, 8, 10, 3, 79, 16, 15, 10, 21, 0)
s = 149: (0, 18, 11, 9, 12, 3, 37, 30, 12, 14, 20, 0)
s = 150: (0, 20, 16, 8, 15, 5, 62, 26, 15, 22, 23, 0)
s = 151: (0, 32, 20, 8, 15, 3, 36, 23, 22, 21, 24, 0)
s = 152: (0, 13, 11, 5, 20, 3, 58, 15, 10, 19, 20, 0)
s = 153: (0, 29, 18, 6, 12, 3, 48, 13, 24, 12, 11, 0)
s = 154: (0, 23, 8, 9, 10, 4, 38, 26, 17, 14, 24, 0)
s = 155: (0, 13, 9, 7, 10, 3, 37, 13, 17, 13, 21, 0)
s = 156: (0, 17, 8, 5, 12, 4, 39, 17, 19, 12, 14, 0)
s = 157: (0, 18, 11, 5, 12, 4, 58, 27, 13, 10, 26, 0)
s = 158: (0, 17, 13, 8, 16, 4, 45, 21, 10, 18, 16, 0)
s = 159: (0, 18, 18, 9, 11, 6, 40, 14, 12, 14, 14, 0)
s = 160: (0, 21, 12, 8, 14, 3, 74, 12, 14, 11, 30, 0)
s = 161: (0, 27, 10, 10, 9, 3, 46, 13, 18, 22, 14, 0)
s = 162: (0, 24, 9, 8, 13, 5, 52, 13, 12, 22, 24, 0)
s = 163: (0, 13, 15, 4, 14, 3, 41, 19, 17, 28, 17, 0)
s = 164: (0, 17, 10, 7, 8, 3, 41, 25, 13, 13, 15, 0)
s = 165: (0, 24, 19, 10, 9, 4, 88, 17, 10, 11, 18, 0)
s = 166: (0, 24, 10, 12, 15, 4, 53, 29, 14, 9, 15, 0)
s = 167: (0, 13, 10, 9, 9, 3, 53, 17, 10, 13, 12, 0)
s = 168: (0, 17, 13, 8, 14, 4, 60, 24, 13, 17, 21, 0)
s = 169: (0, 20, 12, 6, 19, 3, 53, 16, 13, 21, 17, 0)
s = 170: (0, 29, 14, 10, 13, 4, 37, 22, 14, 24, 14, 0)
s = 171: (0, 23, 9, 11, 10, 3, 49, 17, 9, 25, 20, 0)
s = 172: (0, 16, 18, 8, 12, 7, 30, 22, 18, 10, 21, 0)
s = 173: (0, 32, 18, 9, 13, 3, 62, 15, 19, 18, 11, 0)
s = 174: (0, 36, 13, 6, 9, 3, 46, 11, 14, 19, 15, 0)
s = 175: (0, 21, 11, 7, 17, 5, 68, 27, 22, 16, 13, 0)
s = 176: (0, 18, 12, 7, 8, 5, 62, 28, 14, 13, 30, 0)
s = 177: (0, 24, 9, 5, 23, 6, 57, 16, 14, 10, 21, 0)
s = 178: (0, 22, 8, 7, 11, 7, 44, 20, 16, 15, 19, 0)
s = 179: (0, 23, 16, 8, 12, 4, 45, 28, 18, 17, 17, 0)
s = 180: (0, 26, 16, 7, 10, 4, 39, 20, 22, 31, 22, 0)
s = 181: (0, 28, 15, 6, 10, 4, 56, 19, 21, 11, 23, 0)
s = 182: (0, 24, 9, 6, 15, 5, 50, 20, 20, 17, 23, 0)
s = 183: (0, 15, 15, 6, 10, 3, 51, 11, 12, 17, 18, 0)
s = 184: (0, 23, 15, 6, 12, 5, 33, 19, 18, 13, 20, 0)
s = 185: (0, 23, 16, 7, 8, 5, 41, 19, 10, 22, 26, 0)
s = 186: (0, 22, 19, 9, 11, 4, 52, 28, 16, 17, 13, 0)
s = 187: (0, 20, 19, 9, 14, 3, 40, 15, 14, 14, 31, 0)
s = 188: (0, 24, 13, 8, 9, 3, 57, 26, 22, 13, 27, 0)
s = 189: (0, 16, 17, 6, 17, 4, 48, 14, 12, 22, 27, 0)
s = 190: (0, 15, 8, 7, 10, 4, 77, 12, 18, 25, 15, 0)
s = 191: (0, 13, 11, 8, 10, 4, 53, 20, 9, 13, 28, 0)
s = 192: (0, 26, 14, 6, 19, 3, 43, 13, 20, 18, 24, 0)
s = 193: (0, 29, 11, 8, 17, 6, 27, 19, 17, 12, 17, 0)
s = 194: (0, 21, 9, 12, 19, 5, 57, 15, 13, 13, 19, 0)
s = 195: (0, 19, 11, 7, 21, 6, 41, 17, 14, 18, 27, 0)
s = 196: (0, 17, 10, 8, 20, 3, 39, 15, 12, 10, 28, 0)
s = 197: (0, 17, 11, 6, 14, 4, 29, 23, 13, 15, 28, 0)
s = 198: (0, 16, 10, 4, 8, 4, 56, 24, 10, 17, 17, 0)
s = 199: (0, 26, 16, 9, 10, 5, 54, 20, 14, 14, 27, 0)
s = 200: (0, 16, 9, 7, 14, 3, 31, 18, 15, 19, 26, 0)
------------------------------------------------------------------------
RESOURCE k = 2
s = 1: (0, 13, 0, 0, 17, 0, 0, 0, 0, 30, 19, 0)
s = 2: (0, 23, 0, 0, 16, 0, 0, 0, 0, 18, 11, 0)
s = 3: (0, 14, 0, 0, 21, 0, 0, 0, 0, 36, 12, 0)
s = 4: (0, 17, 0, 0, 19, 0, 0, 0, 0, 33, 25, 0)
s = 5: (0, 17, 0, 0, 12, 0, 0, 0, 0, 27, 14, 0)
s = 6: (0, 14, 0, 0, 11, 0, 0, 0, 0, 29, 17, 0)
s = 7: (0, 19, 0, 0, 12, 0, 0, 0, 0, 35, 16, 0)
s = 8: (0, 14, 0, 0, 22, 0, 0, 0, 0, 24, 27, 0)
s = 9: (0, 13, 0, 0, 13, 0, 0, 0, 0, 25, 19, 0)
s = 10: (0, 18, 0, 0, 14, 0, 0, 0, 0, 29, 18, 0)
s = 11: (0, 24, 0, 0, 12, 0, 0, 0, 0, 25, 12, 0)
s = 12: (0, 12, 0, 0, 13, 0, 0, 0, 0, 23, 13, 0)
s = 13: (0, 20, 0, 0, 19, 0, 0, 0, 0, 18, 12, 0)
s = 14: (0, 25, 0, 0, 12, 0, 0, 0, 0, 29, 12, 0)
s = 15: (0, 17, 0, 0, 27, 0, 0, 0, 0, 26, 13, 0)
s = 16: (0, 32, 0, 0, 17, 0, 0, 0, 0, 30, 13, 0)
s = 17: (0, 14, 0, 0, 9, 0, 0, 0, 0, 19, 22, 0)
s = 18: (0, 15, 0, 0, 20, 0, 0, 0, 0, 28, 15, 0)
s = 19: (0, 18, 0, 0, 13, 0, 0, 0, 0, 25, 12, 0)
s = 20: (0, 15, 0, 0, 24, 0, 0, 0, 0, 23, 12, 0)
s = 21: (0, 13, 0, 0, 10, 0, 0, 0, 0, 25, 26, 0)
s = 22: (0, 22, 0, 0, 16, 0, 0, 0, 0, 26, 16, 0)
s = 23: (0, 15, 0, 0, 15, 0, 0, 0, 0, 29, 17, 0)
s = 24: (0, 18, 0, 0, 13, 0, 0, 0, 0, 42, 22, 0)
s = 25: (0, 15, 0, 0, 15, 0, 0, 0, 0, 27, 11, 0)
s = 26: (0, 12, 0, 0, 14, 0, 0, 0, 0, 39, 24, 0)
s = 27: (0, 16, 0, 0, 15, 0, 0, 0, 0, 22, 24, 0)
s = 28: (0, 25, 0, 0, 17, 0, 0, 0, 0, 29, 21, 0)
s = 29: (0, 13, 0, 0, 13, 0, 0, 0, 0, 31, 10, 0)
s = 30: (0, 17, 0, 0, 14, 0, 0, 0, 0, 20, 19, 0)
s = 31: (0, 14, 0, 0, 18, 0, 0, 0, 0, 31, 20, 0)
s = 32: (0, 17, 0, 0, 16, 0, 0, 0, 0, 22, 15, 0)
s = 33: (0, 15, 0, 0, 19, 0, 0, 0, 0, 37, 12, 0)
s = 34: (0, 19, 0, 0, 20, 0, 0, 0, 0, 22, 18, 0)
s = 35: (0, 13, 0, 0, 20, 0, 0, 0, 0, 22, 20, 0)
s = 36: (0, 16, 0, 0, 15, 0, 0, 0, 0, 25, 13, 0)
s = 37: (0, 11, 0, 0, 19, 0, 0, 0, 0, 21, 13, 0)
s = 38: (0, 18, 0, 0, 20, 0, 0, 0, 0, 22, 14, 0)
s = 39: (0, 19, 0, 0, 9, 0, 0, 0, 0, 26, 22, 0)
s = 40: (0, 16, 0, 0, 13, 0, 0, 0, 0, 25, 18, 0)
s = 41: (0, 18, 0, 0, 17, 0, 0, 0, 0, 49, 15, 0)
s = 42: (0, 20, 0, 0, 17, 0, 0, 0, 0, 32, 19, 0)
s = 43: (0, 14, 0, 0, 15, 0, 0, 0, 0, 19, 19, 0)
s = 44: (0, 26, 0, 0, 22, 0, 0, 0, 0, 27, 15, 0)
s = 45: (0, 22, 0, 0, 8, 0, 0, 0, 0, 24, 13, 0)
s = 46: (0, 21, 0, 0, 15, 0, 0, 0, 0, 35, 20, 0)
s = 47: (0, 19, 0, 0, 16, 0, 0, 0, 0, 22, 22, 0)
s = 48: (0, 13, 0, 0, 14, 0, 0, 0, 0, 22, 13, 0)
s = 49: (0, 20, 0, 0, 13, 0, 0, 0, 0, 27, 14, 0)
s = 50: (0, 11, 0, 0, 17, 0, 0, 0, 0, 34, 13, 0)
s = 51: (0, 24, 0, 0, 19, 0, 0, 0, 0, 20, 15, 0)
s = 52: (0, 17, 0, 0, 26, 0, 0, 0, 0, 24, 22, 0)
s = 53: (0, 23, 0, 0, 13, 0, 0, 0, 0, 26, 20, 0)
s = 54: (0, 24, 0, 0, 19, 0, 0, 0, 0, 26, 11, 0)
s = 55: (0, 13, 0, 0, 20, 0, 0, 0, 0, 20, 19, 0)
s = 56: (0, 19, 0, 0, 18, 0, 0, 0, 0, 23, 15, 0)
s = 57: (0, 19, 0, 0, 14, 0, 0, 0, 0, 17, 13, 0)
s = 58: (0, 12, 0, 0, 19, 0, 0, 0, 0, 28, 16, 0)
s = 59: (0, 16, 0, 0, 25, 0, 0, 0, 0, 37, 15, 0)
s = 60: (0, 13, 0, 0, 16, 0, 0, 0, 0, 32, 15, 0)
s = 61: (0, 16, 0, 0, 14, 0, 0, 0, 0, 24, 18, 0)
s = 62: (0, 12, 0, 0, 14, 0, 0, 0, 0, 38, 13, 0)
s = 63: (0, 22, 0, 0, 14, 0, 0, 0, 0, 35, 15, 0)
s = 64: (0, 15, 0, 0, 15, 0, 0, 0, 0, 45, 22, 0)
s = 65: (0, 19, 0, 0, 21, 0, 0, 0, 0, 30, 31, 0)
s = 66: (0, 21, 0, 0, 19, 0, 0, 0, 0, 25, 28, 0)
s = 67: (0, 17, 0, 0, 16, 0, 0, 0, 0, 35, 18, 0)
s = 68: (0, 22, 0, 0, 13, 0, 0, 0, 0, 30, 14, 0)
s = 69: (0, 25, 0, 0, 12, 0, 0, 0, 0, 33, 12, 0)
s = 70: (0, 23, 0, 0, 18, 0, 0, 0, 0, 27, 11, 0)
s = 71: (0, 24, 0, 0, 18, 0, 0, 0, 0, 33, 22, 0)
s = 72: (0, 19, 0, 0, 10, 0, 0, 0, 0, 25, 20, 0)
s = 73: (0, 13, 0, 0, 12, 0, 0, 0, 0, 22, 24, 0)
s = 74: (0, 15, 0, 0, 15, 0, 0, 0, 0, 22, 15, 0)
s = 75: (0, 15, 0, 0, 18, 0, 0, 0, 0, 26, 12, 0)
s = 76: (0, 15, 0, 0, 15, 0, 0, 0, 0, 23, 15, 0)
s = 77: (0, 15, 0, 0, 11, 0, 0, 0, 0, 38, 12, 0)
s = 78: (0, 11, 0, 0, 12, 0, 0, 0, 0, 26, 11, 0)
s = 79: (0, 14, 0, 0, 10, 0, 0, 0, 0, 23, 12, 0)
s = 80: (0, 13, 0, 0, 11, 0, 0, 0, 0, 29, 14, 0)
s = 81: (0, 17, 0, 0, 15, 0, 0, 0, 0, 24, 18, 0)
s = 82: (0, 13, 0, 0, 14, 0, 0, 0, 0, 27, 14, 0)
s = 83: (0, 26, 0, 0, 11, 0, 0, 0, 0, 28, 10, 0)
s = 84: (0, 24, 0, 0, 16, 0, 0, 0, 0, 37, 13, 0)
s = 85: (0, 24, 0, 0, 17, 0, 0, 0, 0, 39, 11, 0)
s = 86: (0, 13, 0, 0, 20, 0, 0, 0, 0, 41, 9, 0)
s = 87: (0, 20, 0, 0, 10, 0, 0, 0, 0, 19, 12, 0)
s = 88: (0, 22, 0, 0, 19, 0, 0, 0, 0, 22, 16, 0)
s = 89: (0, 30, 0, 0, 14, 0, 0, 0, 0, 24, 13, 0)
s = 90: (0, 22, 0, 0, 15, 0, 0, 0, 0, 16, 12, 0)
s = 91: (0, 19, 0, 0, 23, 0, 0, 0, 0, 20, 11, 0)
s = 92: (0, 14, 0, 0, 19, 0, 0, 0, 0, 21, 14, 0)
s = 93: (0, 16, 0, 0, 12, 0, 0, 0, 0, 21, 12, 0)
s = 94: (0, 16, 0, 0, 17, 0, 0, 0, 0, 26, 18, 0)
s = 95: (0, 24, 0, 0, 15, 0, 0, 0, 0, 25, 11, 0)
s = 96: (0, 27, 0, 0, 15, 0, 0, 0, 0, 29, 22, 0)
s = 97: (0, 27, 0, 0, 14, 0, 0, 0, 0, 27, 25, 0)
s = 98: (0, 16, 0, 0, 14, 0, 0, 0, 0, 28, 15, 0)
s = 99: (0, 20, 0, 0, 15, 0, 0, 0, 0, 42, 16, 0)
s = 100: (0, 15, 0, 0, 18, 0, 0, 0, 0, 22, 14, 0)
s = 101: (0, 15, 0, 0, 17, 0, 0, 0, 0, 25, 16, 0)
s = 102: (0, 23, 0, 0, 18, 0, 0, 0, 0, 32, 10, 0)
s = 103: (0, 19, 0, 0, 13, 0, 0, 0, 0, 42, 10, 0)
s = 104: (0, 16, 0, 0, 17, 0, 0, 0, 0, 33, 19, 0)
s = 105: (0, 30, 0, 0, 10, 0, 0, 0, 0, 20, 11, 0)
s = 106: (0, 14, 0, 0, 9, 0, 0, 0, 0, 23, 18, 0)
s = 107: (0, 19, 0, 0, 20, 0, 0, 0, 0, 38, 18, 0)
s = 108: (0, 21, 0, 0, 26, 0, 0, 0, 0, 32, 13, 0)
s = 109: (0, 24, 0, 0, 23, 0, 0, 0, 0, 24, 14, 0)
s = 110: (0, 21, 0, 0, 16, 0, 0, 0, 0, 40, 13, 0)
s = 111: (0, 20, 0, 0, 11, 0, 0, 0, 0, 26, 16, 0)
s = 112: (0, 14, 0, 0, 17, 0, 0, 0, 0, 35, 23, 0)
s = 113: (0, 12, 0, 0, 16, 0, 0, 0, 0, 27, 13, 0)
s = 114: (0, 16, 0, 0, 14, 0, 0, 0, 0, 27, 18, 0)
s = 115: (0, 18, 0, 0, 14, 0, 0, 0, 0, 48, 24, 0)
s = 116: (0, 17, 0, 0, 10, 0, 0, 0, 0, 51, 21, 0)
s = 117: (0, 20, 0, 0, 15, 0, 0, 0, 0, 27, 24, 0)
s = 118: (0, 13, 0, 0, 19, 0, 0, 0, 0, 20, 18, 0)
s = 119: (0, 13, 0, 0, 13, 0, 0, 0, 0, 26, 12, 0)
s = 120: (0, 18, 0, 0, 20, 0, 0, 0, 0, 17, 21, 0)
s = 121: (0, 30, 0, 0, 21, 0, 0, 0, 0, 26, 14, 0)
s = 122: (0, 13, 0, 0, 14, 0, 0, 0, 0, 21, 22, 0)
s = 123: (0, 15, 0, 0, 16, 0, 0, 0, 0, 23, 11, 0)
s = 124: (0, 12, 0, 0, 12, 0, 0, 0, 0, 29, 16, 0)
s = 125: (0, 17, 0, 0, 19, 0, 0, 0, 0, 21, 12, 0)
s = 126: (0, 23, 0, 0, 13, 0, 0, 0, 0, 38, 20, 0)
s = 127: (0, 19, 0, 0, 17, 0, 0, 0, 0, 36, 18, 0)
s = 128: (0, 17, 0, 0, 17, 0, 0, 0, 0, 22, 16, 0)
s = 129: (0, 12, 0, 0, 12, 0, 0, 0, 0, 42, 11, 0)
s = 130: (0, 16, 0, 0, 20, 0, 0, 0, 0, 30, 19, 0)
s = 131: (0, 25, 0, 0, 13, 0, 0, 0, 0, 26, 16, 0)
s = 132: (0, 36, 0, 0, 26, 0, 0, 0, 0, 24, 12, 0)
s = 133: (0, 17, 0, 0, 23, 0, 0, 0, 0, 23, 18, 0)
s = 134: (0, 16, 0, 0, 13, 0, 0, 0, 0, 23, 12, 0)
s = 135: (0, 15, 0, 0, 17, 0, 0, 0, 0, 33, 12, 0)
s = 136: (0, 16, 0, 0, 18, 0, 0, 0, 0, 44, 14, 0)
s = 137: (0, 22, 0, 0, 17, 0, 0, 0, 0, 32, 13, 0)
s = 138: (0, 11, 0, 0, 18, 0, 0, 0, 0, 26, 18, 0)
s = 139: (0, 18, 0, 0, 16, 0, 0, 0, 0, 19, 11, 0)
s = 140: (0, 16, 0, 0, 20, 0, 0, 0, 0, 33, 18, 0)
s = 141: (0, 14, 0, 0, 12, 0, 0, 0, 0, 32, 16, 0)
s = 142: (0, 19, 0, 0, 17, 0, 0, 0, 0, 28, 13, 0)
s = 143: (0, 30, 0, 0, 9, 0, 0, 0, 0, 23, 18, 0)
s = 144: (0, 14, 0, 0, 16, 0, 0, 0, 0, 26, 14, 0)
s = 145: (0, 14, 0, 0, 21, 0, 0, 0, 0, 29, 12, 0)
s = 146: (0, 13, 0, 0, 10, 0, 0, 0, 0, 31, 21, 0)
s = 147: (0, 18, 0, 0, 17, 0, 0, 0, 0, 22, 12, 0)
s = 148: (0, 16, 0, 0, 13, 0, 0, 0, 0, 16, 17, 0)
s = 149: (0, 15, 0, 0, 15, 0, 0, 0, 0, 24, 16, 0)
s = 150: (0, 17, 0, 0, 18, 0, 0, 0, 0, 39, 18, 0)
s = 151: (0, 27, 0, 0, 18, 0, 0, 0, 0, 37, 19, 0)
s = 152: (0, 11, 0, 0, 25, 0, 0, 0, 0, 33, 16, 0)
s = 153: (0, 25, 0, 0, 14, 0, 0, 0, 0, 20, 9, 0)
s = 154: (0, 20, 0, 0, 13, 0, 0, 0, 0, 25, 20, 0)
s = 155: (0, 11, 0, 0, 13, 0, 0, 0, 0, 22, 17, 0)
s = 156: (0, 15, 0, 0, 14, 0, 0, 0, 0, 21, 11, 0)
s = 157: (0, 16, 0, 0, 15, 0, 0, 0, 0, 17, 21, 0)
s = 158: (0, 14, 0, 0, 20, 0, 0, 0, 0, 31, 13, 0)
s = 159: (0, 15, 0, 0, 14, 0, 0, 0, 0, 24, 11, 0)
s = 160: (0, 18, 0, 0, 17, 0, 0, 0, 0, 18, 24, 0)
s = 161: (0, 23, 0, 0, 11, 0, 0, 0, 0, 38, 11, 0)
s = 162: (0, 20, 0, 0, 16, 0, 0, 0, 0, 37, 20, 0)
s = 163: (0, 11, 0, 0, 17, 0, 0, 0, 0, 48, 14, 0)
s = 164: (0, 15, 0, 0, 10, 0, 0, 0, 0, 23, 12, 0)
s = 165: (0, 21, 0, 0, 12, 0, 0, 0, 0, 18, 14, 0)
s = 166: (0, 21, 0, 0, 18, 0, 0, 0, 0, 16, 12, 0)
s = 167: (0, 11, 0, 0, 11, 0, 0, 0, 0, 22, 10, 0)
s = 168: (0, 15, 0, 0, 18, 0, 0, 0, 0, 30, 17, 0)
s = 169: (0, 17, 0, 0, 23, 0, 0, 0, 0, 36, 14, 0)
s = 170: (0, 25, 0, 0, 16, 0, 0, 0, 0, 41, 11, 0)
s = 171: (0, 20, 0, 0, 13, 0, 0, 0, 0, 43, 16, 0)
s = 172: (0, 14, 0, 0, 14, 0, 0, 0, 0, 16, 17, 0)
s = 173: (0, 27, 0, 0, 16, 0, 0, 0, 0, 32, 9, 0)
s = 174: (0, 31, 0, 0, 11, 0, 0, 0, 0, 33, 12, 0)
s = 175: (0, 18, 0, 0, 21, 0, 0, 0, 0, 28, 10, 0)
s = 176: (0, 15, 0, 0, 10, 0, 0, 0, 0, 23, 24, 0)
s = 177: (0, 21, 0, 0, 29, 0, 0, 0, 0, 17, 17, 0)
s = 178: (0, 19, 0, 0, 14, 0, 0, 0, 0, 26, 16, 0)
s = 179: (0, 20, 0, 0, 14, 0, 0, 0, 0, 30, 14, 0)
s = 180: (0, 22, 0, 0, 12, 0, 0, 0, 0, 54, 17, 0)
s = 181: (0, 24, 0, 0, 12, 0, 0, 0, 0, 19, 19, 0)
s = 182: (0, 21, 0, 0, 19, 0, 0, 0, 0, 29, 18, 0)
s = 183: (0, 13, 0, 0, 13, 0, 0, 0, 0, 29, 15, 0)
s = 184: (0, 20, 0, 0, 15, 0, 0, 0, 0, 22, 16, 0)
s = 185: (0, 20, 0, 0, 10, 0, 0, 0, 0, 38, 21, 0)
s = 186: (0, 19, 0, 0, 13, 0, 0, 0, 0, 29, 11, 0)
s = 187: (0, 17, 0, 0, 17, 0, 0, 0, 0, 24, 25, 0)
s = 188: (0, 20, 0, 0, 11, 0, 0, 0, 0, 23, 22, 0)
s = 189: (0, 14, 0, 0, 21, 0, 0, 0, 0, 38, 22, 0)
s = 190: (0, 13, 0, 0, 13, 0, 0, 0, 0, 43, 12, 0)
s = 191: (0, 11, 0, 0, 13, 0, 0, 0, 0, 22, 22, 0)
s = 192: (0, 22, 0, 0, 23, 0, 0, 0, 0, 31, 19, 0)
s = 193: (0, 25, 0, 0, 21, 0, 0, 0, 0, 21, 14, 0)
s = 194: (0, 18, 0, 0, 23, 0, 0, 0, 0, 23, 15, 0)
s = 195: (0, 17, 0, 0, 26, 0, 0, 0, 0, 32, 22, 0)
s = 196: (0, 15, 0, 0, 25, 0, 0, 0, 0, 16, 22, 0)
s = 197: (0, 15, 0, 0, 18, 0, 0, 0, 0, 26, 22, 0)
s = 198: (0, 14, 0, 0, 10, 0, 0, 0, 0, 29, 14, 0)
s = 199: (0, 22, 0, 0, 13, 0, 0, 0, 0, 25, 21, 0)
s = 200: (0, 14, 0, 0, 17, 0, 0, 0, 0, 32, 21, 0)
------------------------------------------------------------------------
RESOURCE k = 3
s = 1: (0, 0, 7, 3, 0, 6, 25, 5, 17, 0, 0, 0)
s = 2: (0, 0, 3, 3, 0, 10, 58, 4, 15, 0, 0, 0)
s = 3: (0, 0, 4, 3, 0, 9, 30, 4, 15, 0, 0, 0)
s = 4: (0, 0, 4, 2, 0, 5, 34, 4, 25, 0, 0, 0)
s = 5: (0, 0, 4, 3, 0, 7, 25, 3, 13, 0, 0, 0)
s = 6: (0, 0, 7, 3, 0, 6, 38, 4, 27, 0, 0, 0)
s = 7: (0, 0, 7, 2, 0, 11, 33, 6, 20, 0, 0, 0)
s = 8: (0, 0, 5, 2, 0, 12, 48, 5, 30, 0, 0, 0)
s = 9: (0, 0, 4, 3, 0, 10, 53, 3, 17, 0, 0, 0)
s = 10: (0, 0, 3, 2, 0, 10, 44, 4, 15, 0, 0, 0)
s = 11: (0, 0, 4, 3, 0, 8, 28, 4, 14, 0, 0, 0)
s = 12: (0, 0, 4, 3, 0, 7, 41, 5, 18, 0, 0, 0)
s = 13: (0, 0, 5, 3, 0, 6, 30, 5, 29, 0, 0, 0)
s = 14: (0, 0, 4, 3, 0, 6, 25, 4, 21, 0, 0, 0)
s = 15: (0, 0, 7, 3, 0, 11, 46, 3, 16, 0, 0, 0)
s = 16: (0, 0, 5, 4, 0, 9, 57, 4, 25, 0, 0, 0)
s = 17: (0, 0, 4, 3, 0, 8, 53, 3, 30, 0, 0, 0)
s = 18: (0, 0, 4, 2, 0, 6, 54, 4, 25, 0, 0, 0)
s = 19: (0, 0, 4, 3, 0, 8, 35, 4, 19, 0, 0, 0)
s = 20: (0, 0, 3, 2, 0, 10, 56, 5, 17, 0, 0, 0)
s = 21: (0, 0, 4, 2, 0, 10, 22, 4, 19, 0, 0, 0)
s = 22: (0, 0, 4, 3, 0, 7, 33, 5, 23, 0, 0, 0)
s = 23: (0, 0, 3, 2, 0, 6, 31, 4, 22, 0, 0, 0)
s = 24: (0, 0, 3, 2, 0, 9, 43, 3, 22, 0, 0, 0)
s = 25: (0, 0, 4, 2, 0, 8, 59, 7, 17, 0, 0, 0)
s = 26: (0, 0, 6, 3, 0, 11, 57, 5, 26, 0, 0, 0)
s = 27: (0, 0, 4, 2, 0, 7, 51, 3, 23, 0, 0, 0)
s = 28: (0, 0, 5, 2, 0, 7, 27, 4, 16, 0, 0, 0)
s = 29: (0, 0, 3, 2, 0, 8, 29, 6, 33, 0, 0, 0)
s = 30: (0, 0, 5, 2, 0, 8, 40, 3, 28, 0, 0, 0)
s = 31: (0, 0, 5, 2, 0, 8, 48, 4, 26, 0, 0, 0)
s = 32: (0, 0, 5, 3, 0, 8, 36, 3, 19, 0, 0, 0)
s = 33: (0, 0, 4, 2, 0, 8, 45, 4, 28, 0, 0, 0)
s = 34: (0, 0, 5, 3, 0, 7, 33, 5, 24, 0, 0, 0)
s = 35: (0, 0, 5, 2, 0, 8, 39, 5, 13, 0, 0, 0)
s = 36: (0, 0, 3, 2, 0, 10, 33, 4, 18, 0, 0, 0)
s = 37: (0, 0, 3, 2, 0, 6, 40, 3, 19, 0, 0, 0)
s = 38: (0, 0, 5, 2, 0, 6, 55, 3, 13, 0, 0, 0)
s = 39: (0, 0, 4, 2, 0, 7, 28, 4, 20, 0, 0, 0)
s = 40: (0, 0, 4, 3, 0, 10, 49, 3, 21, 0, 0, 0)
s = 41: (0, 0, 4, 3, 0, 9, 45, 5, 15, 0, 0, 0)
s = 42: (0, 0, 4, 2, 0, 8, 30, 3, 16, 0, 0, 0)
s = 43: (0, 0, 3, 3, 0, 10, 50, 4, 29, 0, 0, 0)
s = 44: (0, 0, 5, 2, 0, 9, 33, 6, 29, 0, 0, 0)
s = 45: (0, 0, 3, 4, 0, 12, 74, 6, 27, 0, 0, 0)
s = 46: (0, 0, 4, 2, 0, 9, 30, 4, 28, 0, 0, 0)
s = 47: (0, 0, 7, 3, 0, 8, 38, 4, 15, 0, 0, 0)
s = 48: (0, 0, 5, 2, 0, 7, 50, 3, 12, 0, 0, 0)
s = 49: (0, 0, 4, 4, 0, 8, 40, 7, 21, 0, 0, 0)
s = 50: (0, 0, 3, 3, 0, 8, 37, 4, 15, 0, 0, 0)
s = 51: (0, 0, 4, 3, 0, 10, 46, 6, 23, 0, 0, 0)
s = 52: (0, 0, 4, 3, 0, 6, 29, 4, 22, 0, 0, 0)
s = 53: (0, 0, 3, 3, 0, 10, 40, 4, 16, 0, 0, 0)
s = 54: (0, 0, 4, 3, 0, 6, 34, 3, 14, 0, 0, 0)
s = 55: (0, 0, 6, 2, 0, 5, 32, 6, 15, 0, 0, 0)
s = 56: (0, 0, 3, 2, 0, 11, 40, 4, 22, 0, 0, 0)
s = 57: (0, 0, 5, 3, 0, 7, 42, 5, 24, 0, 0, 0)
s = 58: (0, 0, 3, 2, 0, 5, 33, 7, 15, 0, 0, 0)
s = 59: (0, 0, 6, 3, 0, 11, 38, 7, 14, 0, 0, 0)
s = 60: (0, 0, 3, 2, 0, 12, 53, 5, 16, 0, 0, 0)
s = 61: (0, 0, 4, 2, 0, 9, 38, 6, 17, 0, 0, 0)
s = 62: (0, 0, 4, 3, 0, 11, 49, 3, 22, 0, 0, 0)
s = 63: (0, 0, 7, 2, 0, 8, 29, 3, 24, 0, 0, 0)
s = 64: (0, 0, 5, 2, 0, 10, 29, 6, 30, 0, 0, 0)
s = 65: (0, 0, 4, 3, 0, 6, 59, 6, 23, 0, 0, 0)
s = 66: (0, 0, 4, 3, 0, 7, 35, 5, 30, 0, 0, 0)
s = 67: (0, 0, 5, 2, 0, 8, 60, 6, 29, 0, 0, 0)
s = 68: (0, 0, 4, 3, 0, 10, 51, 3, 21, 0, 0, 0)
s = 69: (0, 0, 4, 3, 0, 10, 40, 4, 16, 0, 0, 0)
s = 70: (0, 0, 7, 3, 0, 7, 41, 5, 22, 0, 0, 0)
s = 71: (0, 0, 3, 3, 0, 7, 43, 4, 13, 0, 0, 0)
s = 72: (0, 0, 6, 2, 0, 7, 28, 4, 14, 0, 0, 0)
s = 73: (0, 0, 4, 2, 0, 14, 42, 3, 19, 0, 0, 0)
s = 74: (0, 0, 4, 3, 0, 9, 40, 7, 29, 0, 0, 0)
s = 75: (0, 0, 5, 2, 0, 10, 39, 7, 18, 0, 0, 0)
s = 76: (0, 0, 4, 3, 0, 5, 47, 4, 18, 0, 0, 0)
s = 77: (0, 0, 4, 2, 0, 8, 28, 4, 16, 0, 0, 0)
s = 78: (0, 0, 6, 3, 0, 8, 40, 3, 27, 0, 0, 0)
s = 79: (0, 0, 4, 3, 0, 8, 33, 5, 25, 0, 0, 0)
s = 80: (0, 0, 7, 3, 0, 8, 28, 4, 24, 0, 0, 0)
s = 81: (0, 0, 3, 2, 0, 7, 53, 4, 20, 0, 0, 0)
s = 82: (0, 0, 5, 2, 0, 7, 31, 7, 26, 0, 0, 0)
s = 83: (0, 0, 3, 3, 0, 10, 45, 5, 17, 0, 0, 0)
s = 84: (0, 0, 5, 2, 0, 7, 62, 3, 15, 0, 0, 0)
s = 85: (0, 0, 6, 2, 0, 8, 49, 4, 22, 0, 0, 0)
s = 86: (0, 0, 3, 2, 0, 7, 70, 5, 19, 0, 0, 0)
s = 87: (0, 0, 3, 4, 0, 9, 51, 3, 21, 0, 0, 0)
s = 88: (0, 0, 6, 2, 0, 9, 34, 4, 14, 0, 0, 0)
s = 89: (0, 0, 4, 2, 0, 5, 60, 4, 16, 0, 0, 0)
s = 90: (0, 0, 5, 2, 0, 10, 22, 4, 14, 0, 0, 0)
s = 91: (0, 0, 4, 2, 0, 10, 47, 5, 19, 0, 0, 0)
s = 92: (0, 0, 7, 2, 0, 6, 44, 5, 34, 0, 0, 0)
s = 93: (0, 0, 3, 3, 0, 6, 44, 6, 17, 0, 0, 0)
s = 94: (0, 0, 4, 2, 0, 10, 56, 5, 22, 0, 0, 0)
s = 95: (0, 0, 3, 3, 0, 9, 64, 6, 33, 0, 0, 0)
s = 96: (0, 0, 3, 3, 0, 7, 46, 4, 16, 0, 0, 0)
s = 97: (0, 0, 5, 2, 0, 13, 41, 7, 16, 0, 0, 0)
s = 98: (0, 0, 3, 3, 0, 8, 36, 4, 12, 0, 0, 0)
s = 99: (0, 0, 6, 2, 0, 9, 29, 5, 21, 0, 0, 0)
s = 100: (0, 0, 4, 3, 0, 6, 33, 7, 14, 0, 0, 0)
s = 101: (0, 0, 5, 2, 0, 8, 30, 3, 25, 0, 0, 0)
s = 102: (0, 0, 3, 3, 0, 6, 39, 4, 22, 0, 0, 0)
s = 103: (0, 0, 4, 3, 0, 6, 26, 4, 20, 0, 0, 0)
s = 104: (0, 0, 4, 3, 0, 11, 62, 4, 21, 0, 0, 0)
s = 105: (0, 0, 4, 2, 0, 13, 33, 3, 18, 0, 0, 0)
s = 106: (0, 0, 5, 3, 0, 7, 64, 4, 19, 0, 0, 0)
s = 107: (0, 0, 5, 4, 0, 6, 39, 4, 20, 0, 0, 0)
s = 108: (0, 0, 5, 2, 0, 7, 68, 5, 28, 0, 0, 0)
s = 109: (0, 0, 5, 2, 0, 9, 42, 4, 26, 0, 0, 0)
s = 110: (0, 0, 5, 2, 0, 6, 31, 4, 19, 0, 0, 0)
s = 111: (0, 0, 4, 3, 0, 7, 34, 5, 28, 0, 0, 0)
s = 112: (0, 0, 3, 2, 0, 8, 40, 6, 19, 0, 0, 0)
s = 113: (0, 0, 4, 2, 0, 7, 46, 4, 26, 0, 0, 0)
s = 114: (0, 0, 4, 3, 0, 6, 32, 4, 21, 0, 0, 0)
s = 115: (0, 0, 3, 3, 0, 8, 54, 6, 23, 0, 0, 0)
s = 116: (0, 0, 4, 2, 0, 5, 30, 4, 20, 0, 0, 0)
s = 117: (0, 0, 4, 3, 0, 9, 36, 5, 16, 0, 0, 0)
s = 118: (0, 0, 6, 2, 0, 9, 47, 3, 22, 0, 0, 0)
s = 119: (0, 0, 4, 3, 0, 10, 38, 4, 21, 0, 0, 0)
s = 120: (0, 0, 5, 2, 0, 7, 40, 6, 16, 0, 0, 0)
s = 121: (0, 0, 6, 2, 0, 7, 32, 4, 19, 0, 0, 0)
s = 122: (0, 0, 4, 2, 0, 12, 54, 3, 25, 0, 0, 0)
s = 123: (0, 0, 5, 3, 0, 7, 49, 6, 21, 0, 0, 0)
s = 124: (0, 0, 3, 3, 0, 5, 40, 3, 33, 0, 0, 0)
s = 125: (0, 0, 7, 3, 0, 7, 54, 4, 32, 0, 0, 0)
s = 126: (0, 0, 6, 2, 0, 7, 62, 5, 22, 0, 0, 0)
s = 127: (0, 0, 7, 2, 0, 6, 29, 3, 31, 0, 0, 0)
s = 128: (0, 0, 7, 2, 0, 14, 44, 4, 18, 0, 0, 0)
s = 129: (0, 0, 3, 2, 0, 9, 44, 6, 17, 0, 0, 0)
s = 130: (0, 0, 3, 3, 0, 8, 48, 6, 19, 0, 0, 0)
s = 131: (0, 0, 3, 3, 0, 7, 23, 5, 17, 0, 0, 0)
s = 132: (0, 0, 5, 2, 0, 8, 66, 3, 14, 0, 0, 0)
s = 133: (0, 0, 4, 3, 0, 12, 43, 3, 29, 0, 0, 0)
s = 134: (0, 0, 3, 4, 0, 6, 59, 3, 18, 0, 0, 0)
s = 135: (0, 0, 4, 2, 0, 5, 60, 4, 27, 0, 0, 0)
s = 136: (0, 0, 4, 2, 0, 11, 63, 4, 26, 0, 0, 0)
s = 137: (0, 0, 3, 2, 0, 12, 45, 5, 17, 0, 0, 0)
s = 138: (0, 0, 4, 3, 0, 11, 35, 3, 13, 0, 0, 0)
s = 139: (0, 0, 4, 2, 0, 6, 46, 6, 20, 0, 0, 0)
s = 140: (0, 0, 5, 2, 0, 6, 60, 6, 22, 0, 0, 0)
s = 141: (0, 0, 4, 3, 0, 7, 37, 6, 19, 0, 0, 0)
s = 142: (0, 0, 3, 3, 0, 7, 33, 5, 18, 0, 0, 0)
s = 143: (0, 0, 7, 3, 0, 7, 26, 5, 23, 0, 0, 0)
s = 144: (0, 0, 5, 3, 0, 9, 48, 4, 23, 0, 0, 0)
s = 145: (0, 0, 6, 3, 0, 8, 28, 4, 17, 0, 0, 0)
s = 146: (0, 0, 4, 2, 0, 7, 46, 5, 17, 0, 0, 0)
s = 147: (0, 0, 4, 2, 0, 12, 40, 5, 19, 0, 0, 0)
s = 148: (0, 0, 6, 3, 0, 6, 69, 4, 21, 0, 0, 0)
s = 149: (0, 0, 4, 3, 0, 6, 33, 7, 16, 0, 0, 0)
s = 150: (0, 0, 6, 3, 0, 10, 54, 6, 21, 0, 0, 0)
s = 151: (0, 0, 7, 3, 0, 6, 31, 5, 30, 0, 0, 0)
s = 152: (0, 0, 4, 2, 0, 5, 51, 4, 13, 0, 0, 0)
s = 153: (0, 0, 6, 2, 0, 6, 42, 3, 33, 0, 0, 0)
s = 154: (0, 0, 3, 3, 0, 8, 33, 6, 23, 0, 0, 0)
s = 155: (0, 0, 3, 2, 0, 6, 32, 3, 23, 0, 0, 0)
s = 156: (0, 0, 3, 2, 0, 8, 34, 4, 27, 0, 0, 0)
s = 157: (0, 0, 4, 2, 0, 8, 51, 6, 18, 0, 0, 0)
s = 158: (0, 0, 5, 3, 0, 8, 39, 5, 14, 0, 0, 0)
s = 159: (0, 0, 6, 3, 0, 12, 35, 3, 17, 0, 0, 0)
s = 160: (0, 0, 4, 3, 0, 5, 65, 3, 20, 0, 0, 0)
s = 161: (0, 0, 4, 3, 0, 5, 41, 3, 26, 0, 0, 0)
s = 162: (0, 0, 3, 3, 0, 10, 45, 3, 16, 0, 0, 0)
s = 163: (0, 0, 5, 2, 0, 5, 36, 5, 23, 0, 0, 0)
s = 164: (0, 0, 4, 2, 0, 5, 36, 6, 18, 0, 0, 0)
s = 165: (0, 0, 7, 3, 0, 7, 77, 4, 13, 0, 0, 0)
s = 166: (0, 0, 4, 4, 0, 8, 46, 7, 20, 0, 0, 0)
s = 167: (0, 0, 4, 3, 0, 5, 47, 4, 14, 0, 0, 0)
s = 168: (0, 0, 5, 3, 0, 7, 53, 6, 18, 0, 0, 0)
s = 169: (0, 0, 4, 2, 0, 6, 47, 4, 18, 0, 0, 0)
s = 170: (0, 0, 5, 3, 0, 8, 33, 5, 20, 0, 0, 0)
s = 171: (0, 0, 3, 4, 0, 5, 43, 4, 13, 0, 0, 0)
s = 172: (0, 0, 6, 3, 0, 14, 26, 5, 25, 0, 0, 0)
s = 173: (0, 0, 6, 3, 0, 5, 54, 4, 26, 0, 0, 0)
s = 174: (0, 0, 5, 2, 0, 6, 40, 3, 20, 0, 0, 0)
s = 175: (0, 0, 4, 2, 0, 9, 60, 6, 30, 0, 0, 0)
s = 176: (0, 0, 4, 2, 0, 10, 54, 7, 19, 0, 0, 0)
s = 177: (0, 0, 3, 2, 0, 11, 50, 4, 20, 0, 0, 0)
s = 178: (0, 0, 3, 2, 0, 14, 39, 5, 22, 0, 0, 0)
s = 179: (0, 0, 6, 3, 0, 7, 40, 7, 25, 0, 0, 0)
s = 180: (0, 0, 6, 2, 0, 7, 34, 5, 30, 0, 0, 0)
s = 181: (0, 0, 5, 2, 0, 8, 49, 5, 29, 0, 0, 0)
s = 182: (0, 0, 3, 2, 0, 10, 44, 5, 28, 0, 0, 0)
s = 183: (0, 0, 5, 2, 0, 6, 45, 3, 16, 0, 0, 0)
s = 184: (0, 0, 5, 2, 0, 10, 29, 5, 24, 0, 0, 0)
s = 185: (0, 0, 6, 2, 0, 9, 36, 5, 14, 0, 0, 0)
s = 186: (0, 0, 7, 3, 0, 8, 46, 7, 22, 0, 0, 0)
s = 187: (0, 0, 7, 3, 0, 6, 35, 4, 19, 0, 0, 0)
s = 188: (0, 0, 5, 3, 0, 6, 50, 6, 31, 0, 0, 0)
s = 189: (0, 0, 6, 2, 0, 7, 42, 3, 16, 0, 0, 0)
s = 190: (0, 0, 3, 2, 0, 7, 68, 3, 24, 0, 0, 0)
s = 191: (0, 0, 4, 3, 0, 8, 46, 5, 13, 0, 0, 0)
s = 192: (0, 0, 5, 2, 0, 6, 38, 3, 28, 0, 0, 0)
s = 193: (0, 0, 4, 3, 0, 12, 24, 5, 24, 0, 0, 0)
s = 194: (0, 0, 3, 4, 0, 9, 50, 4, 19, 0, 0, 0)
s = 195: (0, 0, 4, 2, 0, 12, 36, 4, 19, 0, 0, 0)
s = 196: (0, 0, 4, 3, 0, 6, 34, 4, 17, 0, 0, 0)
s = 197: (0, 0, 4, 2, 0, 7, 26, 5, 17, 0, 0, 0)
s = 198: (0, 0, 4, 2, 0, 8, 49, 6, 13, 0, 0, 0)
s = 199: (0, 0, 6, 3, 0, 9, 48, 5, 19, 0, 0, 0)
s = 200: (0, 0, 3, 2, 0, 6, 27, 4, 21, 0, 0, 0)
************************************************************************
ES/LS-VALUES:
jobnr.   ES(i)    LS(i)
------------------------------------------------------------------------
  0        0        0
  1        0       60
  2        0       68
  3        0       81
  4        6       66
  5        3       78
  6       11       72
  7        3       76
  8       22       83
  9       11       80
 10       11       84
 11       27       88
************************************************************************
BIG-M-VALUES:
M1 = 49, M2 = 191
************************************************************************
